# Solution for model brooder_allocation
# Objective value = 2.8645119999999993e+03
X[0,0] 0
X[0,1] 0
X[0,2] 0
X[0,3] 0
X[0,4] 0
X[0,5] 0
X[0,6] 0
X[0,7] 0
X[0,8] 0
X[0,9] 0
X[0,10] 0
X[0,11] 0
X[0,12] 0
X[0,13] 0
X[0,14] 0
X[0,15] 0
X[0,16] 0
X[0,17] 0
X[0,18] 0
X[0,19] 0
X[0,20] 1
X[0,21] 0
X[0,22] 0
X[0,23] 0
X[0,24] 0
X[0,25] 1
X[0,26] 1
X[0,27] 1
X[0,28] 0
X[0,29] 0
X[0,30] 1
X[0,31] 0
X[0,32] 0
X[0,33] 0
X[0,34] 0
X[0,35] 0
X[0,36] 0
X[0,37] 0
X[0,38] 0
X[0,39] 0
X[0,40] 1
X[0,41] 0
X[0,42] 0
X[0,43] 0
X[0,44] 0
X[0,45] 0
X[0,46] 0
X[0,47] 0
X[0,48] 0
X[0,49] 0
X[0,50] 0
X[0,51] 1
X[0,52] 1
X[0,53] 0
X[0,54] 0
X[0,55] 0
X[0,56] 0
X[0,57] 0
X[0,58] 0
X[0,59] 0
X[0,60] 0
X[0,61] 0
X[0,62] 0
X[0,63] 0
X[0,64] 0
X[0,65] 0
X[0,66] 1
X[1,0] 0
X[1,1] 0
X[1,2] 0
X[1,3] 0
X[1,4] 0
X[1,5] 0
X[1,6] 0
X[1,7] 0
X[1,8] 0
X[1,9] 0
X[1,10] 0
X[1,11] 0
X[1,12] 0
X[1,13] 0
X[1,14] 0
X[1,15] 1
X[1,16] 0
X[1,17] 0
X[1,18] 0
X[1,19] 0
X[1,20] 0
X[1,21] 0
X[1,22] 0
X[1,23] 1
X[1,24] 0
X[1,25] 0
X[1,26] 0
X[1,27] 0
X[1,28] 0
X[1,29] 0
X[1,30] 0
X[1,31] 0
X[1,32] 1
X[1,33] 0
X[1,34] 0
X[1,35] 0
X[1,36] 0
X[1,37] 0
X[1,38] 0
X[1,39] 0
X[1,40] 0
X[1,41] 0
X[1,42] 0
X[1,43] 0
X[1,44] 0
X[1,45] 1
X[1,46] 0
X[1,47] 0
X[1,48] 0
X[1,49] 0
X[1,50] 0
X[1,51] 0
X[1,52] 0
X[1,53] 0
X[1,54] 0
X[1,55] 0
X[1,56] 0
X[1,57] 0
X[1,58] 1
X[1,59] 0
X[1,60] 0
X[1,61] 0
X[1,62] 0
X[1,63] 1
X[1,64] 0
X[1,65] 0
X[1,66] 0
X[2,0] 0
X[2,1] 0
X[2,2] 0
X[2,3] 1
X[2,4] 0
X[2,5] 0
X[2,6] 0
X[2,7] 0
X[2,8] 0
X[2,9] 0
X[2,10] 0
X[2,11] 0
X[2,12] 1
X[2,13] 0
X[2,14] 1
X[2,15] 0
X[2,16] 1
X[2,17] 0
X[2,18] 1
X[2,19] 0
X[2,20] 0
X[2,21] 0
X[2,22] 0
X[2,23] 0
X[2,24] 0
X[2,25] 0
X[2,26] 0
X[2,27] 0
X[2,28] 0
X[2,29] 0
X[2,30] 0
X[2,31] 0
X[2,32] 0
X[2,33] 1
X[2,34] 0
X[2,35] 0
X[2,36] 0
X[2,37] 0
X[2,38] 0
X[2,39] 0
X[2,40] 0
X[2,41] 0
X[2,42] 0
X[2,43] 0
X[2,44] 0
X[2,45] 0
X[2,46] 0
X[2,47] 0
X[2,48] 0
X[2,49] 0
X[2,50] 0
X[2,51] 0
X[2,52] 0
X[2,53] 1
X[2,54] 0
X[2,55] 0
X[2,56] 0
X[2,57] 0
X[2,58] 0
X[2,59] 0
X[2,60] 0
X[2,61] 0
X[2,62] 0
X[2,63] 0
X[2,64] 0
X[2,65] 0
X[2,66] 0
X[3,0] 0
X[3,1] 1
X[3,2] 0
X[3,3] 0
X[3,4] 0
X[3,5] 1
X[3,6] 0
X[3,7] 0
X[3,8] 0
X[3,9] 0
X[3,10] 1
X[3,11] 0
X[3,12] 0
X[3,13] 0
X[3,14] 0
X[3,15] 0
X[3,16] 0
X[3,17] 0
X[3,18] 0
X[3,19] 0
X[3,20] 0
X[3,21] 0
X[3,22] 1
X[3,23] 0
X[3,24] 1
X[3,25] 0
X[3,26] 0
X[3,27] 0
X[3,28] 0
X[3,29] 0
X[3,30] 0
X[3,31] 0
X[3,32] 0
X[3,33] 0
X[3,34] 0
X[3,35] 0
X[3,36] 0
X[3,37] 0
X[3,38] 0
X[3,39] 1
X[3,40] 0
X[3,41] 0
X[3,42] 0
X[3,43] 0
X[3,44] 0
X[3,45] 0
X[3,46] 1
X[3,47] 0
X[3,48] 1
X[3,49] 0
X[3,50] 0
X[3,51] 0
X[3,52] 0
X[3,53] 0
X[3,54] 0
X[3,55] 0
X[3,56] 0
X[3,57] 0
X[3,58] 0
X[3,59] 0
X[3,60] 0
X[3,61] 1
X[3,62] 0
X[3,63] 0
X[3,64] 0
X[3,65] 0
X[3,66] 0
X[4,0] 0
X[4,1] 0
X[4,2] 0
X[4,3] 0
X[4,4] 0
X[4,5] 0
X[4,6] 0
X[4,7] 1
X[4,8] 0
X[4,9] 0
X[4,10] 0
X[4,11] 1
X[4,12] 0
X[4,13] 0
X[4,14] 0
X[4,15] 0
X[4,16] 0
X[4,17] 0
X[4,18] 0
X[4,19] 0
X[4,20] 0
X[4,21] 0
X[4,22] 0
X[4,23] 0
X[4,24] 0
X[4,25] 0
X[4,26] 0
X[4,27] 0
X[4,28] 1
X[4,29] 0
X[4,30] 0
X[4,31] 0
X[4,32] 0
X[4,33] 0
X[4,34] 0
X[4,35] 0
X[4,36] 1
X[4,37] 1
X[4,38] 0
X[4,39] 0
X[4,40] 0
X[4,41] 1
X[4,42] 0
X[4,43] 0
X[4,44] 1
X[4,45] 0
X[4,46] 0
X[4,47] 0
X[4,48] 0
X[4,49] 1
X[4,50] 0
X[4,51] 0
X[4,52] 0
X[4,53] 0
X[4,54] 0
X[4,55] 0
X[4,56] 0
X[4,57] 0
X[4,58] 0
X[4,59] 0
X[4,60] 0
X[4,61] 0
X[4,62] 0
X[4,63] 0
X[4,64] 0
X[4,65] 0
X[4,66] 0
X[5,0] 1
X[5,1] 0
X[5,2] 0
X[5,3] 0
X[5,4] 0
X[5,5] 0
X[5,6] 0
X[5,7] 0
X[5,8] 0
X[5,9] 0
X[5,10] 0
X[5,11] 0
X[5,12] 0
X[5,13] 1
X[5,14] 0
X[5,15] 0
X[5,16] 0
X[5,17] 0
X[5,18] 0
X[5,19] 0
X[5,20] 0
X[5,21] 0
X[5,22] 0
X[5,23] 0
X[5,24] 0
X[5,25] 0
X[5,26] 0
X[5,27] 0
X[5,28] 0
X[5,29] 0
X[5,30] 0
X[5,31] 0
X[5,32] 0
X[5,33] 0
X[5,34] 1
X[5,35] 0
X[5,36] 0
X[5,37] 0
X[5,38] 1
X[5,39] 0
X[5,40] 0
X[5,41] 0
X[5,42] 0
X[5,43] 0
X[5,44] 0
X[5,45] 0
X[5,46] 0
X[5,47] 0
X[5,48] 0
X[5,49] 0
X[5,50] 0
X[5,51] 0
X[5,52] 0
X[5,53] 0
X[5,54] 1
X[5,55] 1
X[5,56] 0
X[5,57] 0
X[5,58] 0
X[5,59] 1
X[5,60] 0
X[5,61] 0
X[5,62] 0
X[5,63] 0
X[5,64] 0
X[5,65] 0
X[5,66] 0
X[6,0] 0
X[6,1] 0
X[6,2] 0
X[6,3] 0
X[6,4] 0
X[6,5] 0
X[6,6] 0
X[6,7] 0
X[6,8] 1
X[6,9] 1
X[6,10] 0
X[6,11] 0
X[6,12] 0
X[6,13] 0
X[6,14] 0
X[6,15] 0
X[6,16] 0
X[6,17] 1
X[6,18] 0
X[6,19] 0
X[6,20] 0
X[6,21] 1
X[6,22] 0
X[6,23] 0
X[6,24] 0
X[6,25] 0
X[6,26] 0
X[6,27] 0
X[6,28] 0
X[6,29] 0
X[6,30] 0
X[6,31] 0
X[6,32] 0
X[6,33] 0
X[6,34] 0
X[6,35] 0
X[6,36] 0
X[6,37] 0
X[6,38] 0
X[6,39] 0
X[6,40] 0
X[6,41] 0
X[6,42] 0
X[6,43] 0
X[6,44] 0
X[6,45] 0
X[6,46] 0
X[6,47] 0
X[6,48] 0
X[6,49] 0
X[6,50] 1
X[6,51] 0
X[6,52] 0
X[6,53] 0
X[6,54] 0
X[6,55] 0
X[6,56] 0
X[6,57] 0
X[6,58] 0
X[6,59] 0
X[6,60] 0
X[6,61] 0
X[6,62] 0
X[6,63] 0
X[6,64] 0
X[6,65] 0
X[6,66] 0
X[7,0] 0
X[7,1] 0
X[7,2] 0
X[7,3] 0
X[7,4] 1
X[7,5] 0
X[7,6] 0
X[7,7] 0
X[7,8] 0
X[7,9] 0
X[7,10] 0
X[7,11] 0
X[7,12] 0
X[7,13] 0
X[7,14] 0
X[7,15] 0
X[7,16] 0
X[7,17] 0
X[7,18] 0
X[7,19] 1
X[7,20] 0
X[7,21] 0
X[7,22] 0
X[7,23] 0
X[7,24] 0
X[7,25] 0
X[7,26] 0
X[7,27] 0
X[7,28] 0
X[7,29] 0
X[7,30] 0
X[7,31] 0
X[7,32] 0
X[7,33] 0
X[7,34] 0
X[7,35] 0
X[7,36] 0
X[7,37] 0
X[7,38] 0
X[7,39] 0
X[7,40] 0
X[7,41] 0
X[7,42] 0
X[7,43] 0
X[7,44] 0
X[7,45] 0
X[7,46] 0
X[7,47] 1
X[7,48] 0
X[7,49] 0
X[7,50] 0
X[7,51] 0
X[7,52] 0
X[7,53] 0
X[7,54] 0
X[7,55] 0
X[7,56] 0
X[7,57] 1
X[7,58] 0
X[7,59] 0
X[7,60] 0
X[7,61] 0
X[7,62] 0
X[7,63] 0
X[7,64] 0
X[7,65] 1
X[7,66] 0
X[8,0] 0
X[8,1] 0
X[8,2] 0
X[8,3] 0
X[8,4] 0
X[8,5] 0
X[8,6] 0
X[8,7] 0
X[8,8] 0
X[8,9] 0
X[8,10] 0
X[8,11] 0
X[8,12] 0
X[8,13] 0
X[8,14] 0
X[8,15] 0
X[8,16] 0
X[8,17] 0
X[8,18] 0
X[8,19] 0
X[8,20] 0
X[8,21] 0
X[8,22] 0
X[8,23] 0
X[8,24] 0
X[8,25] 0
X[8,26] 0
X[8,27] 0
X[8,28] 0
X[8,29] 1
X[8,30] 0
X[8,31] 1
X[8,32] 0
X[8,33] 0
X[8,34] 0
X[8,35] 1
X[8,36] 0
X[8,37] 0
X[8,38] 0
X[8,39] 0
X[8,40] 0
X[8,41] 0
X[8,42] 0
X[8,43] 0
X[8,44] 0
X[8,45] 0
X[8,46] 0
X[8,47] 0
X[8,48] 0
X[8,49] 0
X[8,50] 0
X[8,51] 0
X[8,52] 0
X[8,53] 0
X[8,54] 0
X[8,55] 0
X[8,56] 1
X[8,57] 0
X[8,58] 0
X[8,59] 0
X[8,60] 1
X[8,61] 0
X[8,62] 0
X[8,63] 0
X[8,64] 0
X[8,65] 0
X[8,66] 0
X[9,0] 0
X[9,1] 0
X[9,2] 1
X[9,3] 0
X[9,4] 0
X[9,5] 0
X[9,6] 1
X[9,7] 0
X[9,8] 0
X[9,9] 0
X[9,10] 0
X[9,11] 0
X[9,12] 0
X[9,13] 0
X[9,14] 0
X[9,15] 0
X[9,16] 0
X[9,17] 0
X[9,18] 0
X[9,19] 0
X[9,20] 0
X[9,21] 0
X[9,22] 0
X[9,23] 0
X[9,24] 0
X[9,25] 0
X[9,26] 0
X[9,27] 0
X[9,28] 0
X[9,29] 0
X[9,30] 0
X[9,31] 0
X[9,32] 0
X[9,33] 0
X[9,34] 0
X[9,35] 0
X[9,36] 0
X[9,37] 0
X[9,38] 0
X[9,39] 0
X[9,40] 0
X[9,41] 0
X[9,42] 1
X[9,43] 1
X[9,44] 0
X[9,45] 0
X[9,46] 0
X[9,47] 0
X[9,48] 0
X[9,49] 0
X[9,50] 0
X[9,51] 0
X[9,52] 0
X[9,53] 0
X[9,54] 0
X[9,55] 0
X[9,56] 0
X[9,57] 0
X[9,58] 0
X[9,59] 0
X[9,60] 0
X[9,61] 0
X[9,62] 1
X[9,63] 0
X[9,64] 1
X[9,65] 0
X[9,66] 0
